solution status: time limit reached
objective value:                     55.9999999184029
shell_i_$_4__5                                      1 	(obj:0)
shell_i_$_100__5                                    1 	(obj:0)
shell_j_$_22__5                                     1 	(obj:0)
shell_i_$_2__5                                      1 	(obj:0)
shell_j_$_18__5                                     1 	(obj:0)
shell_j_$_5__5                                      1 	(obj:0)
shell_j_thing.thing.chamber[2].thingy.r1c                    1 	(obj:0)
shell_j_$_19__5                                     1 	(obj:0)
shell_i_$_102__5                                    1 	(obj:0)
shell_i_$_125__5                                    1 	(obj:0)
shell_j_$_96__5                                     1 	(obj:0)
shell_i_$_12__5                                     1 	(obj:0)
shell_i_thing.thing.chamber[0].thingy.p1                    1 	(obj:0)
shell_i_thing.thing.chamber[1].thingy.p0                    1 	(obj:0)
shell_j_$_3__5                                      1 	(obj:0)
shell_i_$_137__5                                    1 	(obj:0)
shell_j_$_101__5                                    1 	(obj:0)
shell_i_thing.thing.chamber[1].thingy.p2                    1 	(obj:0)
shell_i_$_6__5                                      1 	(obj:0)
shell_i_$_10__5                                     1 	(obj:0)
shell_j_$_11__5                                     1 	(obj:0)
shell_i_thing.thing.chamber[0].thingy.r1c__5                    1 	(obj:0)
shell_j_thing.thing.chamber[1].thingy.r2c__5                    1 	(obj:0)
shell_i_thing.pump2_hole                            1 	(obj:0)
shell_j_$_16__5                                     1 	(obj:0)
shell_j_$_84__5                                     1 	(obj:0)
shell_i_$_123__5                                    1 	(obj:0)
shell_j_$_23__5                                     1 	(obj:0)
shell_i_$_7__5                                      1 	(obj:0)
shell_i_$_20__5                                     1 	(obj:0)
shell_j_$_98__5                                     1 	(obj:0)
shell_i_$_86__5                                     1 	(obj:0)
shell_j_$_17__5                                     1 	(obj:0)
shell_i_thing.thing.chamber[2].thingy.v4__5                    1 	(obj:0)
shell_i_$_148__5                                    1 	(obj:0)
shell_i_$_143__5                                    1 	(obj:0)
shell_j_thing.thing.chamber[2].thingy.p0                    1 	(obj:0)
shell_j_$_88__5                                     1 	(obj:0)
shell_i_$_9__5                                      1 	(obj:0)
shell_j_thing.thing.chamber[1].thingy.r4c__5                    1 	(obj:0)
shell_i_$_21__5                                     1 	(obj:0)
shell_i_thing.pump0_hole                            1 	(obj:0)
shell_i_$_104__5                                    1 	(obj:0)
shell_i_thing.thing.chamber[2].thingy.v10                    1 	(obj:0)
shell_j_thing.thing.chamber[1].thingy.r1c                    1 	(obj:0)
shell_j_$_93__5                                     1 	(obj:0)
shell_j_$_8__5                                      1 	(obj:0)
shell_i_$_26__5                                     1 	(obj:0)
shell_i_$_120__5                                    1 	(obj:0)
shell_i_$_122__5                                    1 	(obj:0)
shell_j_$_115__5                                    1 	(obj:0)
shell_i_$_25__5                                     1 	(obj:0)
shell_i_$_134__5                                    1 	(obj:0)
shell_i_$_147__5                                    1 	(obj:0)
$_102__5_z                                         13 	(obj:0)
$_2__5_y                                           -6 	(obj:0)
thing.thing.chamber[1].thingy.r2c__5_x    -5.00000001612112 	(obj:0)
thing.thing.chamber[1].thingy.r2c__5_y                   -7 	(obj:0)
thing.thing.chamber[1].thingy.r2c__5_z                   12 	(obj:0)
$_2__5_z                                            9 	(obj:0)
$_125__5_x                                         -7 	(obj:0)
thing.pump2_hole_x                                 -7 	(obj:0)
thing.pump2_hole_y                                 -4 	(obj:0)
thing.pump2_hole_z                                 13 	(obj:0)
$_125__5_y                                         -3 	(obj:0)
$_125__5_z                                         17 	(obj:0)
$_16__5_x                           -6.00000001375783 	(obj:0)
$_16__5_y                                          -7 	(obj:0)
$_16__5_z                            6.00000002509193 	(obj:0)
$_100__5_y                                         -1 	(obj:0)
$_100__5_z                                          9 	(obj:0)
$_84__5_x                           -6.00000000017181 	(obj:0)
$_84__5_y                                          -7 	(obj:0)
$_84__5_z                                          10 	(obj:0)
$_96__5_x                                          -4 	(obj:0)
$_96__5_y                                          -7 	(obj:0)
$_123__5_x                                         -7 	(obj:0)
$_123__5_y                                         -6 	(obj:0)
$_123__5_z                                         18 	(obj:0)
$_96__5_z                                          16 	(obj:0)
$_18__5_x                                          -7 	(obj:0)
$_23__5_x                           -6.99999999630312 	(obj:0)
$_23__5_y                                          -7 	(obj:0)
$_23__5_z                            19.0000000875217 	(obj:0)
$_18__5_y                                          -7 	(obj:0)
$_12__5_x                                          -7 	(obj:0)
$_7__5_x                                           -7 	(obj:0)
$_7__5_y                             1.00000000227997 	(obj:0)
$_7__5_z                                           12 	(obj:0)
$_12__5_y                                          -7 	(obj:0)
$_12__5_z                                          21 	(obj:0)
$_20__5_x                                          -7 	(obj:0)
$_20__5_y                                          -5 	(obj:0)
$_20__5_z                                          10 	(obj:0)
$_18__5_z                            7.99999999722187 	(obj:0)
$_4__5_z                                            6 	(obj:0)
$_98__5_x                                          -5 	(obj:0)
$_98__5_y                                          -7 	(obj:0)
$_98__5_z                                          16 	(obj:0)
thing.thing.chamber[0].thingy.p1_x                   -7 	(obj:0)
thing.thing.chamber[0].thingy.p1_y    -4.99999999922557 	(obj:0)
$_86__5_x                                          -7 	(obj:0)
$_86__5_y                                          -3 	(obj:0)
$_86__5_z                                          12 	(obj:0)
thing.thing.chamber[0].thingy.p1_z                   12 	(obj:0)
$_4__5_x                                           -7 	(obj:0)
$_17__5_x                                          -7 	(obj:0)
$_17__5_y                                          -7 	(obj:0)
$_17__5_z                                           6 	(obj:0)
$_5__5_x                                           -7 	(obj:0)
thing.thing.chamber[1].thingy.p0_x                   -7 	(obj:0)
thing.thing.chamber[2].thingy.v4__5_x                   -7 	(obj:0)
thing.thing.chamber[2].thingy.v4__5_y                   -4 	(obj:0)
thing.thing.chamber[2].thingy.v4__5_z                   10 	(obj:0)
thing.thing.chamber[1].thingy.p0_y                   -4 	(obj:0)
thing.thing.chamber[1].thingy.p0_z                   11 	(obj:0)
$_148__5_x                                         -7 	(obj:0)
$_148__5_z                                         11 	(obj:0)
$_5__5_y                                           -7 	(obj:0)
$_5__5_z                             8.99999999319119 	(obj:0)
$_143__5_x                                         -7 	(obj:0)
$_143__5_z                                         10 	(obj:0)
$_3__5_x                                           -7 	(obj:0)
$_3__5_y                                           -7 	(obj:0)
thing.thing.chamber[2].thingy.p0_x      -3.000000027267 	(obj:0)
thing.thing.chamber[2].thingy.p0_y                   -7 	(obj:0)
thing.thing.chamber[2].thingy.p0_z                   12 	(obj:0)
$_3__5_z                             7.00000000122311 	(obj:0)
$_22__5_x                           -4.00000000582925 	(obj:0)
$_88__5_x                                          -5 	(obj:0)
$_88__5_y                                          -7 	(obj:0)
$_88__5_z                                          17 	(obj:0)
$_22__5_y                                          -7 	(obj:0)
$_137__5_x                                         -7 	(obj:0)
$_9__5_x                                           -7 	(obj:0)
$_9__5_z                                           15 	(obj:0)
$_137__5_y                                         -5 	(obj:0)
$_137__5_z                           8.99999995997721 	(obj:0)
thing.thing.chamber[1].thingy.r4c__5_x                   -6 	(obj:0)
thing.thing.chamber[1].thingy.r4c__5_y                   -7 	(obj:0)
thing.thing.chamber[1].thingy.r4c__5_z                   15 	(obj:0)
thing.thing.chamber[2].thingy.r1c_x    -4.00000002324028 	(obj:0)
thing.thing.chamber[2].thingy.r1c_y                   -7 	(obj:0)
$_21__5_x                                          -7 	(obj:0)
$_21__5_y                                          -1 	(obj:0)
$_21__5_z                                          11 	(obj:0)
$_101__5_x                          -6.00000000815691 	(obj:0)
$_101__5_y                                         -7 	(obj:0)
thing.pump0_hole_x                                 -7 	(obj:0)
thing.pump0_hole_y                                 -3 	(obj:0)
thing.pump0_hole_z                                  9 	(obj:0)
$_101__5_z                                         12 	(obj:0)
thing.thing.chamber[2].thingy.r1c_z                   12 	(obj:0)
$_104__5_x                                         -7 	(obj:0)
$_104__5_y                                         -5 	(obj:0)
$_104__5_z                                         15 	(obj:0)
$_22__5_z                                          17 	(obj:0)
thing.thing.chamber[1].thingy.p2_x                   -7 	(obj:0)
thing.thing.chamber[2].thingy.v10_x                   -7 	(obj:0)
thing.thing.chamber[2].thingy.v10_y                   -5 	(obj:0)
thing.thing.chamber[2].thingy.v10_z                   16 	(obj:0)
thing.thing.chamber[1].thingy.p2_y                   -4 	(obj:0)
thing.thing.chamber[1].thingy.p2_z                   14 	(obj:0)
thing.thing.chamber[1].thingy.r1c_x                   -7 	(obj:0)
thing.thing.chamber[1].thingy.r1c_y                   -7 	(obj:0)
thing.thing.chamber[1].thingy.r1c_z                   12 	(obj:0)
$_4__5_y                                           -4 	(obj:0)
$_19__5_x                                          -6 	(obj:0)
$_93__5_x                                          -7 	(obj:0)
$_93__5_y                                          -7 	(obj:0)
$_93__5_z                                          16 	(obj:0)
$_6__5_x                                           -7 	(obj:0)
$_6__5_y                                           -7 	(obj:0)
$_8__5_x                            -3.00000001142963 	(obj:0)
$_8__5_y                                           -7 	(obj:0)
$_8__5_z                                           17 	(obj:0)
$_6__5_z                              9.9999999925056 	(obj:0)
$_19__5_y                                          -7 	(obj:0)
$_26__5_x                                          -7 	(obj:0)
$_26__5_y                                          -7 	(obj:0)
$_26__5_z                                          25 	(obj:0)
$_19__5_z                                          16 	(obj:0)
$_10__5_x                                          -7 	(obj:0)
$_120__5_x                                         -7 	(obj:0)
$_120__5_y                                         -6 	(obj:0)
$_120__5_z                                         19 	(obj:0)
$_10__5_y                                          -7 	(obj:0)
$_10__5_z                                          15 	(obj:0)
$_122__5_x                                         -7 	(obj:0)
$_122__5_y                                         -7 	(obj:0)
$_122__5_z                                         18 	(obj:0)
$_100__5_x                                         -7 	(obj:0)
$_2__5_x                                           -7 	(obj:0)
$_115__5_x                                         -7 	(obj:0)
$_115__5_y                                         -7 	(obj:0)
$_115__5_z                                         11 	(obj:0)
$_11__5_x                                          -6 	(obj:0)
$_11__5_y                                          -7 	(obj:0)
$_25__5_x                                          -7 	(obj:0)
$_25__5_y                                          -7 	(obj:0)
$_25__5_z                                          17 	(obj:0)
$_11__5_z                                          17 	(obj:0)
$_102__5_x                                         -7 	(obj:0)
$_134__5_x                                         -7 	(obj:0)
$_134__5_y                          -5.99999999924517 	(obj:0)
$_134__5_z                                         12 	(obj:0)
$_102__5_y                                         -3 	(obj:0)
thing.thing.chamber[0].thingy.r1c__5_x                   -7 	(obj:0)
$_147__5_x                                         -7 	(obj:0)
$_147__5_y                                          1 	(obj:0)
$_147__5_z                                         16 	(obj:0)
thing.thing.chamber[0].thingy.r1c__5_y                   -4 	(obj:0)
thing.thing.chamber[0].thingy.r1c__5_z                   12 	(obj:0)
x277                                 1.00000000057615 	(obj:1)
x282                             -3.29485138094719e-09 	(obj:1)
x283                             3.41029714750117e-09 	(obj:1)
x284                                                2 	(obj:1)
x285                             -3.29485138094719e-09 	(obj:1)
x286                             3.41029718912672e-09 	(obj:1)
x287                                                6 	(obj:1)
x288                             -3.29485138094718e-09 	(obj:1)
x289                                 2.99999997274568 	(obj:1)
x290                                                1 	(obj:1)
x292                                                1 	(obj:1)
x301                                                3 	(obj:1)
x308                                                1 	(obj:1)
x309                                                1 	(obj:1)
x311                             3.85081693307715e-09 	(obj:1)
x312                                                1 	(obj:1)
x321                             2.65864511629586e-09 	(obj:1)
x325                                 1.00000000035834 	(obj:1)
x326                                                2 	(obj:1)
x336                             -3.29485138094719e-09 	(obj:1)
x340                                                1 	(obj:1)
x346                                 1.99999998058403 	(obj:1)
x347                                                3 	(obj:1)
x352                                0.999999996293551 	(obj:1)
x353                                                2 	(obj:1)
x354                             -9.99999990481016e-09 	(obj:1)
x355                                 1.00000000275781 	(obj:1)
x356                                                5 	(obj:1)
x361                             5.48817897514063e-09 	(obj:1)
x365                             4.55562722761177e-09 	(obj:1)
x370                                                1 	(obj:1)
x376                             3.41029724122872e-09 	(obj:1)
x386                             -3.29485134106011e-09 	(obj:1)
x388                                 3.99999996943815 	(obj:1)
x389                                                1 	(obj:1)
x391                                 1.99999999993891 	(obj:1)
x397                                                1 	(obj:1)
x410                                                1 	(obj:1)
x415                             1.00665450351923e-08 	(obj:1)
x416                                                1 	(obj:1)
x419                                                2 	(obj:1)
x420                                                2 	(obj:1)
x424                                 2.99999998527552 	(obj:1)
